NAME netflow
ROWS
 N  OBJ
 L  cap[0]  
 L  cap[1]  
 L  cap[2]  
 L  cap[3]  
 L  cap[4]  
 L  cap[5]  
 L  cap[6]  
 E  Continuity(instagram,1.0)
 E  Continuity(instagram,2.0)
 E  Continuity(instagram,3.0)
 E  Continuity(instagram,4.0)
 E  Continuity(instagram,5.0)
 E  Continuity(twitter,1.0)
 E  Continuity(twitter,2.0)
 E  Continuity(twitter,3.0)
 E  Continuity(twitter,4.0)
 E  Continuity(twitter,5.0)
 E  Continuity(zoom,1.0)
 E  Continuity(zoom,2.0)
 E  Continuity(zoom,3.0)
 E  Continuity(zoom,4.0)
 E  Continuity(zoom,5.0)
 E  Continuity(netflix,1.0)
 E  Continuity(netflix,2.0)
 E  Continuity(netflix,3.0)
 E  Continuity(netflix,4.0)
 E  Continuity(netflix,5.0)
COLUMNS
    C0(3)     OBJ       1
    C0(3)     cap[0]    1
    C0(3)     Continuity(instagram,1.0)  1
    C0(3)     Continuity(instagram,2.0)  -1
    C1(3)     OBJ       1
    C1(3)     cap[0]    1
    C1(3)     Continuity(twitter,1.0)  1
    C1(3)     Continuity(twitter,2.0)  -1
    C2(3)     OBJ       1
    C2(3)     cap[0]    1
    C2(3)     Continuity(zoom,1.0)  1
    C2(3)     Continuity(zoom,2.0)  -1
    C3(3)     OBJ       1
    C3(3)     cap[0]    1
    C3(3)     Continuity(netflix,1.0)  1
    C3(3)     Continuity(netflix,2.0)  -1
    C4(3)     OBJ       1
    C4(3)     cap[1]    1
    C4(3)     Continuity(instagram,1.0)  1
    C4(3)     Continuity(instagram,3.0)  -1
    C5(3)     OBJ       1
    C5(3)     cap[1]    1
    C5(3)     Continuity(twitter,1.0)  1
    C5(3)     Continuity(twitter,3.0)  -1
    C6(3)     OBJ       1
    C6(3)     cap[1]    1
    C6(3)     Continuity(zoom,1.0)  1
    C6(3)     Continuity(zoom,3.0)  -1
    C7(3)     OBJ       1
    C7(3)     cap[1]    1
    C7(3)     Continuity(netflix,1.0)  1
    C7(3)     Continuity(netflix,3.0)  -1
    C8(3)     OBJ       2
    C8(3)     cap[2]    1
    C8(3)     Continuity(instagram,2.0)  1
    C8(3)     Continuity(instagram,3.0)  -1
    C9(3)     OBJ       2
    C9(3)     cap[2]    1
    C9(3)     Continuity(twitter,2.0)  1
    C9(3)     Continuity(twitter,3.0)  -1
    C10(3)    OBJ       2
    C10(3)    cap[2]    1
    C10(3)    Continuity(zoom,2.0)  1
    C10(3)    Continuity(zoom,3.0)  -1
    C11(3)    OBJ       2
    C11(3)    cap[2]    1
    C11(3)    Continuity(netflix,2.0)  1
    C11(3)    Continuity(netflix,3.0)  -1
    C12(3)    OBJ       4
    C12(3)    cap[3]    1
    C12(3)    Continuity(instagram,2.0)  1
    C12(3)    Continuity(instagram,4.0)  -1
    C13(3)    OBJ       4
    C13(3)    cap[3]    1
    C13(3)    Continuity(twitter,2.0)  1
    C13(3)    Continuity(twitter,4.0)  -1
    C14(3)    OBJ       4
    C14(3)    cap[3]    1
    C14(3)    Continuity(zoom,2.0)  1
    C14(3)    Continuity(zoom,4.0)  -1
    C15(3)    OBJ       4
    C15(3)    cap[3]    1
    C15(3)    Continuity(netflix,2.0)  1
    C15(3)    Continuity(netflix,4.0)  -1
    C16(3)    OBJ       8
    C16(3)    cap[4]    1
    C16(3)    Continuity(instagram,3.0)  1
    C16(3)    Continuity(instagram,4.0)  -1
    C17(3)    OBJ       8
    C17(3)    cap[4]    1
    C17(3)    Continuity(twitter,3.0)  1
    C17(3)    Continuity(twitter,4.0)  -1
    C18(3)    OBJ       8
    C18(3)    cap[4]    1
    C18(3)    Continuity(zoom,3.0)  1
    C18(3)    Continuity(zoom,4.0)  -1
    C19(3)    OBJ       8
    C19(3)    cap[4]    1
    C19(3)    Continuity(netflix,3.0)  1
    C19(3)    Continuity(netflix,4.0)  -1
    C20(3)    OBJ       5
    C20(3)    cap[5]    1
    C20(3)    Continuity(instagram,3.0)  1
    C20(3)    Continuity(instagram,5.0)  -1
    C21(3)    OBJ       5
    C21(3)    cap[5]    1
    C21(3)    Continuity(twitter,3.0)  1
    C21(3)    Continuity(twitter,5.0)  -1
    C22(3)    OBJ       5
    C22(3)    cap[5]    1
    C22(3)    Continuity(zoom,3.0)  1
    C22(3)    Continuity(zoom,5.0)  -1
    C23(3)    OBJ       5
    C23(3)    cap[5]    1
    C23(3)    Continuity(netflix,3.0)  1
    C23(3)    Continuity(netflix,5.0)  -1
    C24(3)    OBJ       3
    C24(3)    cap[6]    1
    C24(3)    Continuity(instagram,4.0)  1
    C24(3)    Continuity(instagram,5.0)  -1
    C25(3)    OBJ       3
    C25(3)    cap[6]    1
    C25(3)    Continuity(twitter,4.0)  1
    C25(3)    Continuity(twitter,5.0)  -1
    C26(3)    OBJ       3
    C26(3)    cap[6]    1
    C26(3)    Continuity(zoom,4.0)  1
    C26(3)    Continuity(zoom,5.0)  -1
    C27(3)    OBJ       3
    C27(3)    cap[6]    1
    C27(3)    Continuity(netflix,4.0)  1
    C27(3)    Continuity(netflix,5.0)  -1
RHS
    RHS1      cap[0]    20
    RHS1      cap[1]    10
    RHS1      cap[2]    10
    RHS1      cap[3]    20
    RHS1      cap[4]    40
    RHS1      cap[5]    10
    RHS1      cap[6]    30
    RHS1      Continuity(instagram,1.0)  15
    RHS1      Continuity(instagram,4.0)  -15
    RHS1      Continuity(twitter,1.0)  5
    RHS1      Continuity(twitter,5.0)  -5
    RHS1      Continuity(zoom,2.0)  10
    RHS1      Continuity(zoom,5.0)  -10
    RHS1      Continuity(netflix,3.0)  5
    RHS1      Continuity(netflix,5.0)  -5
BOUNDS
ENDATA
